(set-info :smt-lib-version 2.6)
(set-logic LRA)
(set-info :source |
   Monniaux, David; Quantifier Elimination by Lazy Model Enumeration, CAV 2010
|)
(set-info :category "random")
; ./Mjollnir_examples/B4/formula_252.m
(set-info :status unsat)
(assert
 (exists ((|v11:0| Real) )(exists ((|v10:1| Real) )(exists ((|v9:2| Real) )(exists ((|v8:3| Real) )(forall ((|v7:4| Real) )(forall ((|v6:5| Real) )(forall ((|v5:6| Real) )(forall ((|v4:7| Real) )(exists ((|v3:8| Real) )(exists ((|v2:9| Real) )(exists ((|v1:10| Real) )(exists ((|v0:11| Real) )(let ((?x149 (- 13)))
(let ((?x615 (+ (+ (* (- 8) |v8:3|) (* (- 15) |v1:10|)) (* (- 5) |v1:10|))))
(let ((?x56 14))
(let ((?x608 (+ (+ (* (- 15) |v6:5|) (* 7 |v0:11|)) (* 10 |v2:9|))))
(let (($x619 (and (<= (+ ?x608 (* (- 8) |v5:6|)) ?x56) (<= (+ ?x615 (* (- 9) |v5:6|)) ?x149))))
(let ((?x249 19))
(let ((?x600 (+ (+ (* 7 |v6:5|) (* (- 6) |v6:5|)) (* 12 |v6:5|))))
(let ((?x44 0))
(let ((?x47 (- 6)))
(let ((?x300 (* ?x47 |v11:0|)))
(let ((?x595 (+ (+ (+ (* ?x47 |v1:10|) (* 17 |v1:10|)) ?x300) (* 3 |v6:5|))))
(let (($x620 (and (and (<= ?x595 ?x44) (<= (+ ?x600 (* (- 17) |v3:8|)) ?x249)) $x619)))
(let ((?x153 (- 12)))
(let ((?x181 18))
(let ((?x182 (* ?x181 |v6:5|)))
(let ((?x588 (+ (+ (+ (* (- 11) |v6:5|) (* (- 17) |v4:7|)) ?x182) (* 2 |v6:5|))))
(let ((?x92 20))
(let ((?x304 (* ?x47 |v10:1|)))
(let ((?x14 (- 14)))
(let ((?x315 (* ?x14 |v10:1|)))
(let (($x590 (and (<= (+ (+ (+ (* ?x14 |v0:11|) (* ?x249 |v3:8|)) ?x315) ?x304) ?x92) (<= ?x588 ?x153))))
(let ((?x115 (- 20)))
(let ((?x211 (* ?x115 |v4:7|)))
(let ((?x576 (+ (+ (+ (* ?x115 |v10:1|) (* ?x47 |v3:8|)) ?x211) (* 9 |v6:5|))))
(let ((?x130 (- 1)))
(let ((?x553 (* ?x130 |v8:3|)))
(let (($x571 (<= (+ (+ (+ (* ?x130 |v4:7|) (* ?x153 |v2:9|)) ?x553) (* ?x149 |v8:3|)) ?x153)))
(let ((?x75 (- 7)))
(let ((?x561 (+ (+ (+ (* 6 |v2:9|) |v2:9|) (* ?x153 |v10:1|)) (* (- 18) |v1:10|))))
(let ((?x138 17))
(let ((?x554 (+ (+ (+ (* (- 18) |v2:9|) (* ?x249 |v7:4|)) (* ?x149 |v10:1|)) ?x553)))
(let ((?x71 (- 8)))
(let ((?x545 (+ (+ (+ (* ?x138 |v3:8|) (* (- 15) |v2:9|)) (* ?x130 |v4:7|)) (* ?x92 |v8:3|))))
(let ((?x61 16))
(let ((?x535 (+ (+ (* (- 2) |v4:7|) (* 8 |v8:3|)) (* (- 11) |v9:2|))))
(let (($x564 (and (or (<= (+ ?x535 (* (- 16) |v5:6|)) ?x61) (<= ?x545 ?x71)) (or (<= ?x554 ?x138) (<= ?x561 ?x75)))))
(let ((?x35 (- 15)))
(let ((?x394 (* ?x35 |v5:6|)))
(let ((?x528 (+ (+ (* 7 |v0:11|) (* (- 10) |v6:5|)) (* ?x47 |v5:6|))))
(let ((?x127 2))
(let ((?x521 (+ (+ (* 7 |v6:5|) (* ?x130 |v11:0|)) (* (- 9) |v2:9|))))
(let (($x531 (and (<= (+ ?x521 (* 4 |v11:0|)) ?x127) (<= (+ ?x528 ?x394) ?x75))))
(let ((?x19 (- 3)))
(let ((?x512 (+ (+ (* 8 |v8:3|) (* ?x138 |v6:5|)) (* 8 |v6:5|))))
(let ((?x203 (- 19)))
(let ((?x504 (+ (+ (* 12 |v4:7|) (* 5 |v9:2|)) (* ?x138 |v4:7|))))
(let (($x516 (and (<= (+ ?x504 (* 12 |v3:8|)) ?x203) (<= (+ ?x512 (* ?x19 |v10:1|)) ?x19))))
(let (($x622 (and (and (and $x516 $x531) $x564) (and (and (and $x571 (<= ?x576 ?x153)) $x590) $x620))))
(let ((?x24 (- 4)))
(let ((?x216 (* ?x149 |v2:9|)))
(let ((?x134 (- 17)))
(let ((?x135 (* ?x134 |v4:7|)))
(let ((?x495 (+ (+ (+ (* (- 10) |v10:1|) (* (- 2) |v6:5|)) ?x135) ?x216)))
(let ((?x40 8))
(let ((?x489 (+ (+ (+ (* ?x24 |v1:10|) (* 10 |v5:6|)) (* ?x14 |v2:9|)) (* 9 |v3:8|))))
(let ((?x481 (+ (+ (+ (* ?x134 |v11:0|) (* ?x44 |v6:5|)) (* ?x92 |v9:2|)) (* (- 16) |v0:11|))))
(let ((?x80 10))
(let ((?x474 (+ (+ (+ (* ?x249 |v0:11|) (* 3 |v5:6|)) (* ?x149 |v0:11|)) (* 3 |v3:8|))))
(let (($x498 (and (and (<= ?x474 ?x80) (<= ?x481 ?x56)) (and (<= ?x489 ?x40) (<= ?x495 ?x24)))))
(let ((?x464 (+ (+ (+ (* ?x115 |v10:1|) (* 9 |v2:9|)) (* ?x19 |v1:10|)) (* ?x80 |v9:2|))))
(let ((?x99 9))
(let ((?x451 (* ?x99 |v0:11|)))
(let (($x466 (and (<= (+ (+ (+ ?x451 (* ?x24 |v11:0|)) (* ?x56 |v7:4|)) ?x451) ?x47) (<= ?x464 ?x61))))
(let ((?x222 (- 16)))
(let (($x449 (<= (+ (+ (+ (* ?x40 |v5:6|) (* ?x203 |v10:1|)) (* ?x44 |v3:8|)) |v7:4|) ?x222)))
(let ((?x96 13))
(let (($x442 (<= (+ (+ (+ |v6:5| (* (- 11) |v8:3|)) ?x182) (* ?x61 |v0:11|)) ?x96)))
(let ((?x52 (- 10)))
(let ((?x292 (* ?x14 |v1:10|)))
(let ((?x432 (+ (+ (+ (* 12 |v1:10|) (* 5 |v8:3|)) ?x292) (* ?x75 |v9:2|))))
(let ((?x88 (- 2)))
(let ((?x65 (* ?x52 |v4:7|)))
(let ((?x425 (+ (+ (+ (* ?x96 |v1:10|) (* (- 5) |v10:1|)) (* ?x134 |v9:2|)) ?x65)))
(let ((?x417 (+ (+ (+ (* ?x40 |v2:9|) (* ?x96 |v0:11|)) (* ?x134 |v8:3|)) (* (- 5) |v0:11|))))
(let ((?x408 (+ (+ (+ (* ?x75 |v3:8|) (* (- 5) |v8:3|)) (* ?x75 |v4:7|)) (* ?x134 |v7:4|))))
(let (($x435 (or (and (<= ?x408 ?x88) (<= ?x417 1)) (and (<= ?x425 ?x88) (<= ?x432 ?x52)))))
(let ((?x398 (+ (+ (+ (* 12 |v0:11|) ?x394) ?x182) (* 15 |v9:2|))))
(let ((?x391 (+ (+ (+ (* ?x35 |v4:7|) (* ?x35 |v3:8|)) (* (- 11) |v10:1|)) (* 3 |v10:1|))))
(let ((?x176 (- 18)))
(let ((?x382 (+ (+ (* 7 |v2:9|) (* 5 |v9:2|)) (* ?x61 |v8:3|))))
(let ((?x337 3))
(let ((?x376 (+ (+ (+ (* 5 |v3:8|) (* ?x47 |v7:4|)) (* ?x222 |v1:10|)) (* ?x61 |v1:10|))))
(let (($x401 (and (and (<= ?x376 ?x337) (<= (+ ?x382 (* ?x99 |v1:10|)) ?x176)) (and (<= ?x391 ?x130) (<= ?x398 ?x92)))))
(let (($x623 (and (and (and $x401 $x435) (and (and (and $x442 $x449) $x466) $x498)) $x622)))
(let ((?x361 (+ (+ (+ (* ?x249 |v6:5|) (* ?x96 |v11:0|)) (* ?x71 |v8:3|)) (* 4 |v8:3|))))
(let ((?x353 (+ (+ (+ (* ?x115 |v1:10|) (* ?x222 |v6:5|)) (* (- 9) |v4:7|)) |v10:1|)))
(let ((?x345 (+ (+ (+ (* (- 5) |v7:4|) (* ?x40 |v11:0|)) (* ?x130 |v0:11|)) (* 15 |v8:3|))))
(let (($x347 (and (<= (+ (+ (+ ?x300 (* ?x24 |v2:9|)) (* ?x130 |v6:5|)) ?x182) ?x337) (<= ?x345 ?x99))))
(let ((?x328 (+ (+ (+ (* ?x134 |v10:1|) (* ?x127 |v3:8|)) (* ?x153 |v1:10|)) (* ?x88 |v5:6|))))
(let ((?x320 (+ (+ (+ (* ?x88 |v7:4|) ?x315) (* ?x40 |v3:8|)) (* 6 |v1:10|))))
(let ((?x311 (+ (+ (+ ?x304 (* 7 |v5:6|)) (* 7 |v8:3|)) (* ?x127 |v10:1|))))
(let (($x306 (<= (+ (+ (+ (* 4 |v5:6|) ?x300) (* ?x92 |v5:6|)) ?x304) ?x96)))
(let (($x365 (and (and (and $x306 (<= ?x311 ?x134)) (and (<= ?x320 ?x47) (<= ?x328 ?x130))) (and $x347 (and (<= ?x353 ?x99) (<= ?x361 ?x80))))))
(let ((?x295 (+ (+ (+ (* ?x40 |v4:7|) (* ?x92 |v11:0|)) ?x292) (* 7 |v11:0|))))
(let ((?x288 (+ (+ (+ (* ?x44 |v9:2|) (* ?x52 |v8:3|)) (* ?x47 |v0:11|)) (* ?x52 |v3:8|))))
(let ((?x278 (+ (+ (* ?x153 |v9:2|) (* (- 11) |v3:8|)) (* 12 |v11:0|))))
(let ((?x124 6))
(let ((?x272 (+ (+ (+ (* 12 |v7:4|) (* ?x61 |v9:2|)) (* ?x92 |v11:0|)) (* ?x138 |v0:11|))))
(let (($x298 (and (and (<= ?x272 ?x124) (<= (+ ?x278 (* ?x80 |v3:8|)) ?x14)) (and (<= ?x288 ?x80) (<= ?x295 ?x44)))))
(let ((?x27 7))
(let ((?x260 (+ (+ (+ (* (- 5) |v4:7|) (* ?x138 |v1:10|)) (* ?x176 |v7:4|)) (* ?x27 |v1:10|))))
(let ((?x253 (+ (+ (+ (* (- 11) |v7:4|) (* ?x138 |v9:2|)) (* ?x249 |v11:0|)) (* (- 9) |v8:3|))))
(let ((?x32 4))
(let ((?x242 (+ (+ (+ (* 15 |v5:6|) (* ?x44 |v6:5|)) (* ?x35 |v4:7|)) (* ?x80 |v10:1|))))
(let ((?x67 15))
(let ((?x234 (+ (+ (+ (* ?x181 |v11:0|) (* (- 5) |v10:1|)) (* ?x96 |v4:7|)) (* ?x56 |v6:5|))))
(let (($x263 (and (and (<= ?x234 ?x67) (<= ?x242 ?x32)) (and (<= ?x253 ?x61) (<= ?x260 ?x27)))))
(let ((?x221 (+ (+ (+ (* ?x130 |v6:5|) ?x216) (* (- 9) |v3:8|)) (* 11 |v3:8|))))
(let (($x213 (<= (+ (+ (+ (* ?x27 |v7:4|) (* ?x181 |v3:8|)) (* ?x124 |v6:5|)) ?x211) ?x176)))
(let ((?x202 (+ (+ (+ (* ?x32 |v9:2|) (* ?x24 |v1:10|)) (* ?x124 |v3:8|)) (* (- 11) |v11:0|))))
(let ((?x195 (+ (+ (+ (* ?x27 |v10:1|) (* ?x27 |v3:8|)) (* (- 11) |v5:6|)) (* ?x47 |v4:7|))))
(let (($x177 (<= (+ (+ (+ |v0:11| (* ?x115 |v2:9|)) (* ?x47 |v1:10|)) (* ?x56 |v0:11|)) ?x176)))
(let (($x187 (and $x177 (<= (+ (+ (+ (* ?x127 |v4:7|) |v0:11|) ?x182) (* ?x19 |v8:3|)) ?x181))))
(let ((?x165 (+ (+ (+ (* ?x47 |v0:11|) (* ?x32 |v5:6|)) (* ?x40 |v9:2|)) (* ?x153 |v8:3|))))
(let ((?x156 (* ?x124 |v3:8|)))
(let ((?x157 (+ (+ (+ (* (- 11) |v10:1|) (* ?x149 |v7:4|)) (* ?x153 |v3:8|)) ?x156)))
(let (($x226 (and (and (or (<= ?x157 ?x115) (<= ?x165 ?x40)) $x187) (and (and (<= ?x195 ?x24) (<= ?x202 ?x203)) (and $x213 (<= ?x221 ?x222))))))
(let (($x141 (<= (+ (+ (+ (* ?x127 |v0:11|) (* ?x130 |v3:8|)) ?x135) (* ?x138 |v8:3|)) ?x44)))
(let ((?x121 (- 5)))
(let ((?x122 (* ?x121 |v4:7|)))
(let (($x125 (<= (+ (+ (+ (* ?x115 |v11:0|) (* ?x96 |v6:5|)) (* ?x67 |v11:0|)) ?x122) ?x124)))
(let ((?x110 (+ (+ (+ (* ?x71 |v4:7|) (* (- 9) |v6:5|)) (* ?x27 |v5:6|)) (* ?x92 |v3:8|))))
(let ((?x97 (* ?x96 |v6:5|)))
(let (($x100 (<= (+ (+ (+ (* ?x47 |v8:3|) (* ?x88 |v4:7|)) (* ?x92 |v1:10|)) ?x97) ?x99)))
(let ((?x79 (+ (+ (+ (* ?x19 |v9:2|) (* ?x71 |v0:11|)) (* ?x75 |v6:5|)) (* ?x47 |v9:2|))))
(let (($x68 (<= (+ (+ (+ (* ?x52 |v6:5|) (* ?x56 |v11:0|)) (* ?x61 |v3:8|)) ?x65) ?x67)))
(let ((?x46 (+ (+ (+ (* ?x32 |v7:4|) (* ?x35 |v9:2|)) (* ?x40 |v10:1|)) (* ?x44 |v10:1|))))
(let ((?x25 (* ?x24 |v1:10|)))
(let ((?x26 (+ (+ (+ (* 11 |v6:5|) (* ?x14 |v0:11|)) (* ?x19 |v9:2|)) ?x25)))
(let (($x144 (and (and (and (<= ?x26 ?x27) (<= ?x46 ?x47)) (or $x68 (<= ?x79 ?x80))) (or (and $x100 (<= ?x110 ?x71)) (and $x125 $x141)))))
(and (and (and $x144 $x226) (and (and $x263 $x298) $x365)) $x623))))))))))))))))))))))))))))))))))))))))))))))))))))))))))))))))))))))))))))))))))))))))))))))))))))))))))))))))))))))))))))))))))))
)
)
)
)
)
)
)
)
)
)
)
)
(check-sat)
(exit)

